p cnf 79 125
c weights 1.0 1.0 1.0 1.0 1.0 1.0 1.0 1.0 1.0 1.0 1.0 1.0 1.0 1.0 1.0 1.0 1.0 1.0 1.0 1.0 1.0 1.0 1.0 1.0 1.0 1.0 1.0 1.0 1.0 1.0 1.0 1.0 1.0 1.0 1.0 1.0 1.0 1.0 1.0 1.0 1.0 1.0 1.0 1.0 1.0 1.0 1.0 1.0 1.0 1.0 1.0 1.0 1.0 1.0 1.0 1.0 1.0 1.0 1.0 1.0 1.0 1.0 1.0 1.0 1.0 1.0 1.0 1.0 0.2 0.8 0.2 0.8 0.2 0.8 0.3 0.7 0.0 1.0 0.3 0.7 0.0 1.0 0.3 0.7 0.0 1.0 0.1 0.9 0.1 0.9 0.1 0.9 0.1 0.9 0.4 0.6 0.0 1.0 0.0 1.0 0.0 1.0 0.4 0.6 0.0 1.0 0.0 1.0 0.0 1.0 1.0 0.0 1.0 0.0 1.0 0.0 0.0 1.0 1.0 0.0 1.0 0.0 1.0 0.0 0.0 1.0 0.4 0.6 0.0 1.0 0.0 1.0 0.0 1.0 0.4 0.6 0.0 1.0 0.0 1.0 0.0 1.0 1.0 0.0 1.0 0.0 1.0 0.0 1.0 0.0 1.0 0.0 1.0 0.0 1.0 0.0 0.0 1.0
1 2 0
-1 -2 0
3 4 0
-3 -4 0
5 6 0
-5 -6 0
7 8 0
-7 -8 0
9 10 0
-9 -10 0
11 12 0
-11 -12 0
13 14 0
-13 -14 0
15 16 0
-15 -16 0
17 18 0
-17 -18 0
19 20 0
-19 -20 0
21 22 0
-21 -22 0
23 24 0
-23 -24 0
25 26 0
-25 -26 0
27 28 0
-27 -28 0
29 30 0
-29 -30 0
31 32 0
-31 -32 0
33 34 0
-33 -34 0
-35 1 0
35 2 0
-36 3 0
36 4 0
-37 5 0
37 6 0
-1 -38 7 0
-1 38 8 0
-2 -39 7 0
-2 39 8 0
-3 -40 9 0
-3 40 10 0
-4 -41 9 0
-4 41 10 0
-5 -42 11 0
-5 42 12 0
-6 -43 11 0
-6 43 12 0
-44 13 0
44 14 0
-45 15 0
45 16 0
-46 17 0
46 18 0
-47 19 0
47 20 0
-17 -11 -48 21 0
-17 -11 48 22 0
-17 -12 -49 21 0
-17 -12 49 22 0
-18 -11 -50 21 0
-18 -11 50 22 0
-18 -12 -51 21 0
-18 -12 51 22 0
-19 -9 -52 23 0
-19 -9 52 24 0
-19 -10 -53 23 0
-19 -10 53 24 0
-20 -9 -54 23 0
-20 -9 54 24 0
-20 -10 -55 23 0
-20 -10 55 24 0
-21 -9 -56 25 0
-21 -9 56 26 0
-21 -10 -57 25 0
-21 -10 57 26 0
-22 -9 -58 25 0
-22 -9 58 26 0
-22 -10 -59 25 0
-22 -10 59 26 0
-23 -11 -60 27 0
-23 -11 60 28 0
-23 -12 -61 27 0
-23 -12 61 28 0
-24 -11 -62 27 0
-24 -11 62 28 0
-24 -12 -63 27 0
-24 -12 63 28 0
-13 -25 -64 29 0
-13 -25 64 30 0
-13 -26 -65 29 0
-13 -26 65 30 0
-14 -25 -66 29 0
-14 -25 66 30 0
-14 -26 -67 29 0
-14 -26 67 30 0
-15 -27 -68 31 0
-15 -27 68 32 0
-15 -28 -69 31 0
-15 -28 69 32 0
-16 -27 -70 31 0
-16 -27 70 32 0
-16 -28 -71 31 0
-16 -28 71 32 0
-7 -29 -31 -72 33 0
-7 -29 -31 72 34 0
-7 -29 -32 -73 33 0
-7 -29 -32 73 34 0
-7 -30 -31 -74 33 0
-7 -30 -31 74 34 0
-7 -30 -32 -75 33 0
-7 -30 -32 75 34 0
-8 -29 -31 -76 33 0
-8 -29 -31 76 34 0
-8 -29 -32 -77 33 0
-8 -29 -32 77 34 0
-8 -30 -31 -78 33 0
-8 -30 -31 78 34 0
-8 -30 -32 -79 33 0
-8 -30 -32 79 34 0
33 0